p tdp 20 40
1 6
1 7
1 11
1 15
2 12
2 16
2 19
3 7
3 9
3 10
3 17
3 19
3 20
4 9
4 14
5 6
5 7
5 8
6 7
6 13
6 16
6 18
7 10
7 16
7 19
8 13
8 14
8 20
9 11
9 15
10 14
10 16
11 14
11 18
12 15
12 16
12 17
13 14
14 19
15 16
